(set-logic QF_S)
(declare-fun var0 () String)
(declare-fun var1 () String)
(declare-fun var2 () String)
(declare-fun var3 () String)
(declare-fun var4 () String)
(declare-fun var5 () String)
(declare-fun var6 () String)
(declare-fun var7 () String)
(declare-fun var8 () String)
(declare-fun var9 () String)
(declare-fun var10 () String)
(declare-fun var11 () String)
(declare-fun var12 () String)
(declare-fun var13 () String)
(declare-fun var14 () String)
(declare-fun var15 () String)
(declare-fun var16 () String)
(declare-fun var17 () String)
(declare-fun var18 () String)
(declare-fun var19 () String)
(declare-fun var20 () String)
(declare-fun var21 () String)
(declare-fun var22 () String)
(declare-fun var23 () String)
(declare-fun var24 () String)
(declare-fun var25 () String)
(declare-fun var26 () String)
(declare-fun var27 () String)
(declare-fun var28 () String)
(declare-fun var29 () String)
(declare-fun var30 () String)
(declare-fun var31 () String)
(declare-fun var32 () String)
(declare-fun var33 () String)
(declare-fun var34 () String)
(declare-fun var35 () String)
(declare-fun var36 () String)
(declare-fun var37 () String)
(declare-fun var38 () String)
(declare-fun var39 () String)
(declare-fun var40 () String)
(declare-fun var41 () String)
(declare-fun var42 () String)
(declare-fun var43 () String)
(declare-fun var44 () String)
(declare-fun var45 () String)
(declare-fun var46 () String)
(declare-fun var47 () String)
(declare-fun var48 () String)
(declare-fun var49 () String)
(declare-fun var50 () String)
(declare-fun var51 () String)
(declare-fun var52 () String)
(declare-fun var53 () String)
(declare-fun var54 () String)
(declare-fun var55 () String)
(declare-fun var56 () String)
(declare-fun var57 () String)
(declare-fun var58 () String)
(declare-fun var59 () String)
(declare-fun var60 () String)
(assert (= var0 (Concat var1 var2)))
(assert (= var2 (Concat var3 var4)))
(assert (= var4 (Concat var5 var6)))
(assert (= var6 (Concat var7 var8)))
(assert (= var8 (Concat var9 var10)))
(assert (= var10 (Concat var11 var12)))
(assert (= var12 (Concat var13 var14)))
(assert (= var14 (Concat var15 var16)))
(assert (= var16 (Concat var17 var18)))
(assert (= var18 (Concat var19 var20)))
(assert (= var20 (Concat var21 var22)))
(assert (= var22 (Concat var23 var24)))
(assert (= var24 (Concat var25 var26)))
(assert (= var26 (Concat var27 var28)))
(assert (= var28 (Concat var29 var30)))
(assert (= var30 (Concat var31 var32)))
(assert (= var32 (Concat var33 var34)))
(assert (= var34 (Concat var35 var36)))
(assert (= var36 (Concat var37 var38)))
(assert (= var38 (Concat var39 var40)))
(assert (= var40 (Concat var41 var42)))
(assert (= var42 (Concat var43 var44)))
(assert (= var44 (Concat var45 var46)))
(assert (= var46 (Concat var47 var48)))
(assert (= var48 (Concat var49 var50)))
(assert (= var50 (Concat var51 var52)))
(assert (= var52 (Concat var53 var54)))
(assert (= var54 (Concat var55 var56)))
(assert (= var56 (Concat var57 var58)))
(assert (= var58 (Concat var59 var60)))
(assert (= var0 "solution"))
(assert (= "0" (CharAt var34 712)))
(assert (= "m" (CharAt var0 942)))
(assert (= "}" (CharAt var18 480)))
(assert (= "S" (CharAt var26 718)))
(assert (= "T" (CharAt var46 813)))
(assert (= "+" (CharAt var26 985)))
(assert (= "Q" (CharAt var6 724)))
(assert (= "d" (CharAt var16 596)))
(assert (= ";" (CharAt var59 183)))
(assert (= "8" (CharAt var17 721)))
(assert (= "z" (CharAt var49 266)))
(assert (= "Z" (CharAt var54 627)))
(assert (= "P" (CharAt var12 549)))
(assert (= "*" (CharAt var32 777)))
(assert (= "[" (CharAt var41 773)))
(assert (= "9" (CharAt var59 474)))
(assert (= "N" (CharAt var2 841)))
(assert (= "O" (CharAt var43 354)))
(assert (= "@" (CharAt var52 533)))
(assert (= "v" (CharAt var55 691)))
(assert (= "$" (CharAt var30 360)))
(assert (= "x" (CharAt var47 30)))
(assert (= "b" (CharAt var57 832)))
(assert (= "&" (CharAt var37 902)))
(assert (= "J" (CharAt var13 859)))
(assert (= "X" (CharAt var19 921)))
(assert (= "Y" (CharAt var4 120)))
(assert (= "J" (CharAt var13 985)))
(assert (= "{" (CharAt var55 183)))
(assert (= "I" (CharAt var9 832)))
(assert (= "v" (CharAt var32 848)))
(assert (= "&" (CharAt var46 951)))
(assert (= "0" (CharAt var24 673)))
(assert (= "W" (CharAt var33 857)))
(assert (= "Q" (CharAt var34 771)))
(assert (= "\"" (CharAt var2 847)))
(assert (= "+" (CharAt var22 113)))
(assert (= "z" (CharAt var1 621)))
(assert (= "," (CharAt var19 844)))
(assert (= "5" (CharAt var33 766)))
(assert (= "s" (CharAt var8 333)))
(assert (= "2" (CharAt var56 151)))
(assert (= "T" (CharAt var32 305)))
(assert (= "&" (CharAt var47 225)))
(assert (= "g" (CharAt var45 447)))
(assert (= "v" (CharAt var33 723)))
(assert (= "c" (CharAt var40 917)))
(assert (= "@" (CharAt var23 138)))
(assert (= "J" (CharAt var50 522)))
(assert (= "N" (CharAt var32 151)))
(assert (= "a" (CharAt var45 595)))
(assert (= "%" (CharAt var16 95)))
(assert (= "D" (CharAt var11 610)))
(assert (= "U" (CharAt var34 28)))
(assert (= "]" (CharAt var14 322)))
(assert (= "C" (CharAt var47 683)))
(assert (= "J" (CharAt var12 541)))
(assert (= "9" (CharAt var36 166)))
(assert (= "^" (CharAt var29 759)))
(assert (= "p" (CharAt var47 267)))
(assert (= "a" (CharAt var58 41)))
(assert (= "=" (CharAt var43 74)))
(assert (= "4" (CharAt var20 371)))
(assert (= "j" (CharAt var51 627)))
(assert (= "e" (CharAt var12 57)))
(assert (= "3" (CharAt var38 855)))
(assert (= "h" (CharAt var47 815)))
(assert (= "4" (CharAt var8 762)))
(assert (= "h" (CharAt var51 315)))
(assert (= "j" (CharAt var53 165)))
(assert (= "~" (CharAt var8 326)))
(assert (= "u" (CharAt var10 54)))
(assert (= "G" (CharAt var58 213)))
(assert (= "u" (CharAt var38 214)))
(assert (= "v" (CharAt var53 695)))
(assert (= "r" (CharAt var19 31)))
(assert (= "R" (CharAt var32 5)))
(assert (= "l" (CharAt var21 792)))
(assert (= "k" (CharAt var55 493)))
(assert (= "`" (CharAt var18 960)))
(assert (= "W" (CharAt var56 853)))
(assert (= "a" (CharAt var59 957)))
(assert (= "a" (CharAt var51 239)))
(assert (= "Z" (CharAt var12 247)))
(assert (= "w" (CharAt var17 841)))
(assert (= "Q" (CharAt var34 594)))
(assert (= "g" (CharAt var9 13)))
(assert (= "&" (CharAt var15 656)))
(assert (= "Q" (CharAt var37 729)))
(assert (= "2" (CharAt var29 671)))
(assert (= "P" (CharAt var53 162)))
(assert (= "b" (CharAt var22 337)))
(assert (= "C" (CharAt var59 723)))
(assert (= "F" (CharAt var37 950)))
(assert (= ">" (CharAt var17 995)))
(assert (= "+" (CharAt var27 103)))
(assert (= "n" (CharAt var11 192)))
(assert (= "E" (CharAt var35 105)))
(assert (= "L" (CharAt var47 502)))
(assert (= "-" (CharAt var22 648)))
(assert (= "j" (CharAt var23 105)))
(assert (= "U" (CharAt var53 991)))
(assert (= "u" (CharAt var32 6)))
(assert (= "3" (CharAt var3 460)))
(assert (= "+" (CharAt var18 817)))
(assert (= "j" (CharAt var9 15)))
(assert (= "M" (CharAt var1 138)))
(assert (= "\\" (CharAt var48 340)))
(assert (= "v" (CharAt var33 652)))
(assert (= "'" (CharAt var14 699)))
(assert (= "I" (CharAt var48 331)))
(assert (= "n" (CharAt var31 542)))
(assert (= "s" (CharAt var10 642)))
(assert (= "P" (CharAt var12 205)))
(assert (= "J" (CharAt var50 902)))
(assert (= "8" (CharAt var49 249)))
(assert (= "b" (CharAt var21 13)))
(assert (= "u" (CharAt var13 392)))
(assert (= "L" (CharAt var52 193)))
(assert (= ":" (CharAt var22 237)))
(assert (= "t" (CharAt var60 280)))
(assert (= "[" (CharAt var53 774)))
(assert (= "k" (CharAt var43 70)))
(assert (= "4" (CharAt var32 816)))
(assert (= "K" (CharAt var49 396)))
(assert (= "h" (CharAt var59 620)))
(assert (= "r" (CharAt var48 142)))
(assert (= "\\" (CharAt var27 783)))
(assert (= "%" (CharAt var52 988)))
(assert (= "U" (CharAt var0 56)))
(assert (= "w" (CharAt var14 578)))
(assert (= "p" (CharAt var1 773)))
(assert (= "I" (CharAt var41 789)))
(assert (= "`" (CharAt var34 289)))
(assert (= "H" (CharAt var27 297)))
(assert (= ">" (CharAt var55 866)))
(assert (= "b" (CharAt var29 758)))
(assert (= "<" (CharAt var31 534)))
(assert (= "|" (CharAt var13 686)))
(assert (= "L" (CharAt var13 539)))
(assert (= "%" (CharAt var22 274)))
(assert (= "1" (CharAt var38 771)))
(assert (= "\\" (CharAt var6 119)))
(assert (= "6" (CharAt var27 338)))
(assert (= "W" (CharAt var27 583)))
(assert (= "R" (CharAt var40 965)))
(assert (= "%" (CharAt var39 315)))
(assert (= "r" (CharAt var13 849)))
(assert (= "+" (CharAt var53 46)))
(assert (= "M" (CharAt var35 784)))
(assert (= "T" (CharAt var42 663)))
(assert (= "u" (CharAt var59 639)))
(assert (= "=" (CharAt var30 297)))
(assert (= "A" (CharAt var38 144)))
(assert (= "V" (CharAt var38 839)))
(assert (= "M" (CharAt var4 195)))
(assert (= "S" (CharAt var18 452)))
(assert (= "n" (CharAt var57 59)))
(assert (= "F" (CharAt var1 14)))
(assert (= "w" (CharAt var6 399)))
(assert (= "F" (CharAt var5 512)))
(assert (= "|" (CharAt var11 26)))
(assert (= "g" (CharAt var3 606)))
(assert (= "c" (CharAt var35 491)))
(assert (= "%" (CharAt var50 931)))
(assert (= ";" (CharAt var51 746)))
(assert (= "q" (CharAt var18 784)))
(assert (= "C" (CharAt var47 684)))
(assert (= "9" (CharAt var5 594)))
(assert (= "%" (CharAt var7 478)))
(assert (= "1" (CharAt var21 469)))
(assert (= "|" (CharAt var17 927)))
(assert (= "_" (CharAt var14 75)))
(assert (= "9" (CharAt var1 970)))
(assert (= "[" (CharAt var11 420)))
(assert (= "'" (CharAt var34 192)))
(assert (= "u" (CharAt var34 176)))
(assert (= "z" (CharAt var54 294)))
(assert (= "n" (CharAt var41 207)))
(assert (= "b" (CharAt var39 212)))
(assert (= ";" (CharAt var34 327)))
(assert (= "6" (CharAt var59 390)))
(assert (= "l" (CharAt var54 183)))
(assert (= "x" (CharAt var1 931)))
(assert (= "W" (CharAt var16 459)))
(assert (= "[" (CharAt var2 744)))
(assert (= "x" (CharAt var4 56)))
(assert (= "m" (CharAt var31 254)))
(assert (= "8" (CharAt var28 766)))
(assert (= "[" (CharAt var38 612)))
(assert (= "^" (CharAt var37 36)))
(assert (= "A" (CharAt var5 743)))
(assert (= "\"" (CharAt var58 870)))
(assert (= "W" (CharAt var41 867)))
(assert (= "y" (CharAt var53 724)))
(assert (= "M" (CharAt var49 833)))
(assert (= "f" (CharAt var24 49)))
(assert (= "]" (CharAt var7 488)))
(assert (= "I" (CharAt var31 133)))
(assert (= "L" (CharAt var6 98)))
(assert (= "q" (CharAt var30 797)))
(check-sat)